50
1 0 5
2 1 1
3 2 3
4 2 4
5 0 5
6 1 8
6 3 6
6 4 1
7 4 3
7 5 2
8 0 5
8 1 10
8 2 7
8 4 3
8 5 2
8 7 6
9 0 10
9 3 5
9 4 3
9 6 6
9 7 2
9 8 1
10 0 5
10 3 7
10 6 8
11 1 3
11 2 8
11 3 4
11 7 7
12 1 3
12 4 4
12 7 3
12 9 3
12 11 3
13 0 2
13 1 2
13 2 2
13 3 9
13 4 1
13 5 7
13 6 8
13 7 5
13 8 2
13 11 3
14 0 10
14 3 8
14 4 9
14 6 3
14 7 6
14 8 9
14 9 2
14 10 8
14 11 6
15 0 6
15 1 2
15 2 8
15 4 7
15 5 2
15 6 8
15 7 4
15 9 6
16 1 3
16 3 3
16 5 3
16 7 10
16 8 3
16 10 3
16 13 5
16 14 10
17 1 5
17 3 8
17 5 9
17 6 6
17 7 1
17 10 4
17 13 4
17 15 5
18 0 1
18 1 1
18 2 2
18 3 4
18 5 9
18 6 7
18 7 6
18 8 4
18 9 10
18 10 8
18 11 1
19 0 7
19 3 6
19 4 8
19 7 3
19 10 3
19 11 2
19 12 3
19 13 5
19 15 2
19 16 5
19 17 5
19 18 3
20 1 2
20 2 7
20 4 9
20 5 6
20 7 10
20 10 10
20 11 2
20 12 7
20 13 1
20 16 4
20 17 9
21 6 9
21 7 6
21 9 8
21 10 8
21 12 5
21 13 1
21 15 6
21 18 1
21 20 4
22 1 8
22 3 2
22 4 10
22 5 4
22 8 8
22 12 7
22 13 5
22 18 6
22 21 9
23 1 6
23 4 8
23 5 10
23 10 4
23 11 7
23 15 2
23 18 1
23 20 4
24 0 1
24 1 3
24 12 3
24 13 2
24 16 3
24 19 8
24 21 7
24 23 8
25 0 2
25 2 2
25 4 7
25 7 5
25 9 2
25 10 4
25 14 9
25 15 5
25 18 1
25 19 9
25 24 1
26 0 6
26 2 9
26 3 10
26 4 7
26 5 1
26 8 10
26 9 8
26 10 4
26 13 4
26 14 2
26 15 3
26 16 3
26 18 5
26 24 10
27 1 3
27 3 9
27 7 7
27 8 1
27 10 3
27 11 10
27 15 2
27 16 4
27 17 9
27 20 10
27 22 4
27 23 5
28 0 4
28 1 5
28 5 3
28 6 1
28 7 9
28 9 1
28 11 3
28 12 5
28 16 10
28 19 3
28 21 6
28 22 5
28 24 10
28 26 2
29 1 1
29 2 10
29 3 1
29 4 4
29 6 10
29 7 2
29 9 1
29 10 3
29 12 2
29 14 9
29 18 10
29 20 7
29 23 1
29 25 2
30 0 7
30 2 5
30 4 3
30 5 10
30 9 10
30 10 6
30 11 4
30 12 7
30 14 1
30 15 2
30 16 10
30 19 5
30 21 5
30 22 4
30 23 3
30 28 9
31 0 7
31 5 10
31 8 2
31 9 4
31 10 2
31 11 2
31 12 2
31 13 8
31 15 7
31 17 5
31 21 10
31 23 1
31 26 10
31 27 1
32 0 9
32 4 5
32 7 8
32 8 5
32 10 7
32 12 8
32 13 4
32 15 7
32 17 7
32 19 6
32 20 8
32 24 9
32 25 7
32 26 4
32 29 1
33 1 10
33 2 3
33 3 1
33 4 3
33 5 10
33 7 5
33 8 5
33 10 2
33 11 4
33 13 5
33 14 8
33 17 2
33 19 4
33 20 7
33 24 1
33 26 5
33 27 6
33 29 1
34 2 1
34 3 2
34 7 5
34 11 3
34 15 3
34 18 1
34 19 9
34 20 6
34 21 5
34 24 4
34 26 5
34 27 9
34 28 8
34 29 7
34 30 8
34 31 3
34 33 9
35 3 2
35 4 9
35 6 7
35 7 6
35 13 2
35 15 1
35 19 3
35 20 3
35 21 10
35 23 4
35 25 7
35 26 9
35 27 4
35 28 7
35 29 7
35 30 1
35 34 2
36 0 2
36 1 9
36 2 5
36 5 4
36 9 7
36 13 4
36 17 7
36 18 7
36 22 4
36 23 3
36 24 8
36 25 7
36 26 5
36 27 6
36 29 1
36 31 8
36 32 2
37 0 7
37 1 8
37 3 2
37 6 1
37 7 6
37 8 4
37 16 5
37 17 7
37 18 3
37 19 10
37 21 1
37 23 1
37 28 5
37 30 10
37 31 4
37 35 10
38 1 2
38 3 7
38 7 7
38 9 4
38 10 5
38 11 5
38 12 6
38 14 10
38 17 2
38 18 8
38 19 9
38 20 2
38 21 9
38 25 9
38 27 8
38 28 7
38 37 2
39 3 8
39 5 7
39 7 4
39 14 2
39 15 7
39 16 2
39 18 7
39 19 5
39 20 5
39 21 2
39 22 3
39 24 7
39 27 5
39 28 8
39 30 7
39 31 1
39 36 9
39 37 6
39 38 5
40 0 3
40 1 5
40 2 8
40 4 5
40 5 3
40 6 3
40 8 5
40 11 5
40 17 5
40 18 1
40 27 2
40 28 8
40 30 4
40 34 5
40 37 10
40 38 3
40 39 2
41 1 9
41 2 9
41 4 10
41 8 6
41 12 6
41 14 3
41 16 10
41 18 6
41 20 4
41 23 10
41 24 10
41 26 9
41 30 2
41 32 6
41 33 10
41 37 9
41 39 5
41 40 3
42 0 1
42 1 10
42 3 6
42 5 4
42 8 9
42 9 6
42 11 5
42 12 7
42 14 4
42 15 7
42 17 9
42 20 1
42 21 1
42 22 3
42 23 2
42 24 4
42 25 6
42 29 9
42 30 1
42 31 1
42 32 7
42 34 7
42 37 1
42 38 6
43 2 1
43 3 9
43 5 2
43 8 8
43 9 1
43 11 3
43 12 7
43 15 9
43 18 3
43 23 6
43 24 8
43 25 8
43 27 1
43 28 3
43 30 1
43 37 1
43 38 1
43 39 3
43 40 8
43 42 10
44 0 3
44 1 9
44 7 7
44 8 4
44 15 10
44 17 10
44 18 2
44 21 8
44 22 3
44 25 9
44 29 3
44 31 9
44 33 5
44 34 2
44 35 10
44 37 10
44 40 3
44 42 1
44 43 9
45 0 2
45 1 10
45 2 5
45 7 3
45 8 9
45 10 7
45 12 1
45 15 7
45 17 9
45 19 4
45 20 5
45 21 6
45 24 4
45 28 1
45 29 4
45 33 4
45 34 2
45 36 8
45 37 3
45 43 10
45 44 8
46 0 5
46 2 10
46 4 4
46 7 4
46 8 8
46 12 9
46 13 8
46 17 4
46 19 2
46 20 6
46 22 1
46 23 5
46 24 7
46 25 10
46 28 10
46 29 6
46 30 1
46 31 2
46 32 10
46 35 3
46 37 5
46 40 5
46 41 10
46 43 6
47 5 5
47 12 5
47 13 6
47 15 4
47 17 4
47 18 2
47 20 4
47 24 1
47 30 8
47 33 8
47 34 7
47 38 8
47 41 2
47 46 2
48 4 10
48 5 3
48 9 1
48 10 8
48 13 4
48 15 4
48 16 5
48 18 9
48 20 5
48 24 4
48 26 9
48 29 1
48 31 4
48 32 2
48 35 1
48 37 5
48 41 10
48 44 2
48 45 6
48 47 1
49 2 8
49 3 6
49 4 6
49 5 4
49 11 5
49 12 1
49 13 7
49 14 2
49 15 4
49 16 6
49 17 7
49 19 6
49 21 6
49 22 6
49 23 10
49 26 3
49 31 7
49 32 10
49 35 10
49 37 9
49 38 4
49 45 7
49 48 7
